files/upTests/__reps/function-int2d-partial/0001.eprime
language ESSENCE' 1.0

find f_FunctionIntPair2DPartial_tuple1:
        matrix indexed by [int(1..3), int(1..3)] of bool
find f_FunctionIntPair2DPartial_tuple2:
        matrix indexed by [int(1..3), int(1..3)] of int(0..9)
such that
    forAll v__0 : int(1..3)
        . {f_FunctionIntPair2DPartial_tuple2[v__0, v__0] @ such that
                                                               f_FunctionIntPair2DPartial_tuple1[v__0, v__0]}
          =
          v__0 + v__0
