files/upTests/__reps/function-int2d-partial/0001.eprime.solution
language ESSENCE' 1.0
$ minion Nodes: 13
$ minion TotalTime: 0.000882
$ minion TimeOut: 0
$ Savile Row TotalTime: 0.081
letting f_FunctionIntPair2DPartial_tuple1 be [[true, false, false;int(1..3)], 
[false, true, false;int(1..3)], 
[false, false, true;int(1..3)];int(1..3)]
letting f_FunctionIntPair2DPartial_tuple2 be [[2, 0, 0;int(1..3)], 
[0, 4, 0;int(1..3)], 
[0, 0, 6;int(1..3)];int(1..3)]
